# ==============================

# PCFF PARAMS (units real)

# 10 atom types / 12 bonds / 25 angles / 29 dihedrals

# ==============================

# ---------- PAIR (PCFF 9-6) ----------

# epsilon (kcal/mol), sigma (Å)

pair_coeff 1 1 0.083 2.995   # HGA1
pair_coeff 2 2 0.083 2.995   # HGA2
pair_coeff 3 3 0.083 2.995   # HGA3

pair_coeff 4 4 0.502 3.810   # CG2O2

pair_coeff 5 5 0.225 4.010   # CG301
pair_coeff 6 6 0.225 4.010   # CG311
pair_coeff 7 7 0.225 4.010   # CG321
pair_coeff 8 8 0.225 4.010   # CG331

pair_coeff 9 9 1.117 3.535   # OG2D1
pair_coeff 10 10 1.004 3.420 # OG302

# ---------- BONDS (class2) ----------

# bond_coeff ID  r0  K2  K3  K4   (kcal/mol)

bond_coeff 1  1.520 253.73 -423.20 397.00
bond_coeff 2  1.520 253.73 -423.20 397.00

bond_coeff 3  1.202 850.70 -1918.64 2160.72
bond_coeff 4  1.368 367.14 -794.86 1055.22

bond_coeff 5  1.530 299.74 -501.76 679.63
bond_coeff 6  1.530 299.74 -501.76 679.63
bond_coeff 7  1.530 299.74 -501.76 679.63
bond_coeff 8  1.530 299.74 -501.76 679.63

bond_coeff 9  1.101 345.06 -691.74 844.69
bond_coeff 10 1.101 345.06 -691.74 844.69
bond_coeff 11 1.101 345.06 -691.74 844.69

bond_coeff 12 1.430 326.63 -608.55 688.22

# ---------- ANGLES (class2) ----------

# angle_coeff ID  K2  K3  K4  theta0  (kcal/mol)

angle_coeff 1  51.99 -9.49 -10.99 108.53
angle_coeff 2  51.99 -9.49 -10.99 108.53
angle_coeff 3  51.99 -9.49 -10.99 108.53
angle_coeff 4  51.99 -9.49 -10.99 108.53

angle_coeff 5  41.46 -10.61 5.13 110.77
angle_coeff 6  61.29 -17.21 7.99 113.288
angle_coeff 7  55.55 -28.99 0.13 123.145
angle_coeff 8  38.86 -10.35 -7.98 100.318

angle_coeff 9  39.53 -7.44 -9.56 112.67
angle_coeff 10 39.53 -7.44 -9.56 112.67

angle_coeff 11 41.46 -10.61 5.13 110.77
angle_coeff 12 41.46 -10.61 5.13 110.77

angle_coeff 13 55.55 -28.99 0.13 123.145
angle_coeff 14 38.86 -10.35 -7.98 100.318

angle_coeff 15 41.46 -10.61 5.13 110.77
angle_coeff 16 41.46 -10.61 5.13 110.77

angle_coeff 17 39.53 -7.44 -9.56 112.67
angle_coeff 18 39.53 -7.44 -9.56 112.67
angle_coeff 19 39.53 -7.44 -9.56 112.67

angle_coeff 20 41.46 -10.61 5.13 110.77
angle_coeff 21 39.53 -7.44 -9.56 112.67
angle_coeff 22 41.46 -10.61 5.13 110.77

angle_coeff 23 39.65 -32.29 -2.43 107.66
angle_coeff 24 39.65 -32.29 -2.43 107.66

angle_coeff 25 65.49 -3.83 5.89 107.688

# ---------- DIHEDRALS (class2-compatible Fourier form) ----------

# dihedral_coeff ID  N  K1 n1 d1  K2 n2 d2  K3 n3 d3

dihedral_coeff 1  3  7.673 1 0.0  8.620 2 0.0  -0.081 3 0.0
dihedral_coeff 2  3  7.673 1 0.0  8.620 2 0.0  -0.081 3 0.0
dihedral_coeff 3  3  7.673 1 0.0  8.620 2 0.0  -0.081 3 0.0
dihedral_coeff 4  3  7.673 1 0.0  8.620 2 0.0  -0.081 3 0.0
dihedral_coeff 5  3  7.673 1 0.0  8.620 2 0.0  -0.081 3 0.0
dihedral_coeff 6  3  7.673 1 0.0  8.620 2 0.0  -0.081 3 0.0
dihedral_coeff 7  3  7.673 1 0.0  8.620 2 0.0  -0.081 3 0.0

dihedral_coeff 8  3  10.708 1 0.0  9.210 2 0.0  0.135 3 0.0
dihedral_coeff 9  3  10.708 1 0.0  9.210 2 0.0  0.135 3 0.0

dihedral_coeff 10 2  0.215 2 0.0  -0.598 3 0.0
dihedral_coeff 11 2  0.215 2 0.0  -0.598 3 0.0

dihedral_coeff 12 2  0.132 2 0.0  -0.703 3 0.0
dihedral_coeff 13 2  0.132 2 0.0  -0.703 3 0.0
dihedral_coeff 14 2  0.132 2 0.0  -0.703 3 0.0

dihedral_coeff 15 2  0.215 2 0.0  -0.598 3 0.0
dihedral_coeff 16 2  0.215 2 0.0  -0.598 3 0.0

dihedral_coeff 17 2  0.132 2 0.0  -0.703 3 0.0
dihedral_coeff 18 2  0.132 2 0.0  -0.703 3 0.0

dihedral_coeff 19 2  0.215 2 0.0  -0.598 3 0.0
dihedral_coeff 20 2  0.132 2 0.0  -0.703 3 0.0

dihedral_coeff 21 3  -0.599 1 0.0  0.258 2 0.0  -0.453 3 0.0
dihedral_coeff 22 3  -0.599 1 0.0  0.258 2 0.0  -0.453 3 0.0
dihedral_coeff 23 3  -0.599 1 0.0  0.258 2 0.0  -0.453 3 0.0

dihedral_coeff 24 1  -0.808 3 0.0

dihedral_coeff 25 3  0.184 1 0.0  0.122 2 0.0  0.235 3 0.0
dihedral_coeff 26 3  0.184 1 0.0  0.122 2 0.0  0.235 3 0.0
dihedral_coeff 27 3  0.184 1 0.0  0.122 2 0.0  0.235 3 0.0
dihedral_coeff 28 3  0.184 1 0.0  0.122 2 0.0  0.235 3 0.0

dihedral_coeff 29 3  -0.754 1 0.0  0.005 2 0.0  0.155 3 0.0

